language Essence 1.3

letting codeWordLength be 15
letting dist be
        function((1, 1) --> 0, (1, 2) --> 4, (1, 3) --> 1, (1, 4) --> 0, (1, 5) --> 2, (1, 6) --> 4, (1, 7) --> 4,
                 (2, 1) --> 4, (2, 2) --> 0, (2, 3) --> 1, (2, 4) --> 4, (2, 5) --> 4, (2, 6) --> 2, (2, 7) --> 2,
                 (3, 1) --> 1, (3, 2) --> 1, (3, 3) --> 0, (3, 4) --> 3, (3, 5) --> 2, (3, 6) --> 0, (3, 7) --> 2,
                 (4, 1) --> 0, (4, 2) --> 4, (4, 3) --> 3, (4, 4) --> 0, (4, 5) --> 1, (4, 6) --> 1, (4, 7) --> 2,
                 (5, 1) --> 2, (5, 2) --> 4, (5, 3) --> 2, (5, 4) --> 1, (5, 5) --> 0, (5, 6) --> 0, (5, 7) --> 2,
                 (6, 1) --> 4, (6, 2) --> 2, (6, 3) --> 0, (6, 4) --> 1, (6, 5) --> 0, (6, 6) --> 0, (6, 7) --> 4,
                 (7, 1) --> 4, (7, 2) --> 2, (7, 3) --> 2, (7, 4) --> 2, (7, 5) --> 2, (7, 6) --> 4, (7, 7) --> 0)
letting maxDist be 10
letting minDist be 4
letting nbCharacter be 7
letting numOfCodeWords be 48
